3 48 1 10
19 16 11 16 18 10 6 6 17 3 6 8 11 10 7 7 6 19 13 7 6 5 14 6 20 2 18 15 3 7 1 13 11 10 18 14 15 12 18 16 14 18 8 2 7 17 15 20 
12.34 6.28 13.19 1.09 3.14 1.14 4.94 7.76 0.39 4.45 3.35 10.65 6.84 9.99 12.8 13.77 14.93 0.25 12.83 0.75 10.13 13.8 9.05 13.19 2.84 14.18 11.57 7.8 4.93 0.43 10.51 3 8.68 14.12 7.81 10.32 11.44 1.76 2.23 1.44 7.72 4.9 1.72 2.71 6.51 10.21 8.16 10.7 
8 8 8 8 8 8 8 8 8 8 8 8 8 8 8 8 8 8 8 8 8 8 8 8 8 8 8 8 8 8 8 8 8 8 8 8 8 8 8 8 8 8 8 8 8 8 8 8 
13.05 11.5 4.04 5.95 10.46 3.33 13.62 8.1 3.29 0.85 1.18 14.03 10.97 2.06 2.49 10.26 2.19 4.03 4.52 1.78 10.01 3.88 8.06 14.92 4.37 8.14 0.7 5.74 11.96 12.92 5.03 11.69 3.4 7.79 9.05 0.13 7.19 15.16 1.37 7.45 3.38 11.01 14.71 14.17 12.69 11.55 2.18 15.7 
1 1 1 1 1 1 1 1 1 1 1 1 1 1 1 1 1 1 1 1 1 1 1 1 1 1 1 1 1 1 1 1 1 1 1 1 1 1 1 1 1 1 1 1 1 1 1 1 
1 1 1 1 1 1 1 1 1 1 1 1 1 1 1 1 1 1 1 1 1 1 1 1 1 1 1 1 1 1 1 1 1 1 1 1 1 1 1 1 1 1 1 1 1 1 1 1 
1 1 1 1 1 1 1 1 1 1 1 1 1 1 1 1 1 1 1 1 1 1 1 1 1 1 1 1 1 1 1 1 1 1 1 1 1 1 1 1 1 1 1 1 1 1 1 1 
0.01 0.01 0.01 0.01 0.01 0.01 0.01 0.01 0.01 0.01 0.01 0.01 0.01 0.01 0.01 0.01 0.01 0.01 0.01 0.01 0.01 0.01 0.01 0.01 0.01 0.01 0.01 0.01 0.01 0.01 0.01 0.01 0.01 0.01 0.01 0.01 0.01 0.01 0.01 0.01 0.01 0.01 0.01 0.01 0.01 0.01 0.01 0.01 
0.02 0.02 0.02 0.02 0.02 0.02 0.02 0.02 0.02 0.02 0.02 0.02 0.02 0.02 0.02 0.02 0.02 0.02 0.02 0.02 0.02 0.02 0.02 0.02 0.02 0.02 0.02 0.02 0.02 0.02 0.02 0.02 0.02 0.02 0.02 0.02 0.02 0.02 0.02 0.02 0.02 0.02 0.02 0.02 0.02 0.02 0.02 0.02 
1 1 1 1 1 1 1 1 1 1 1 1 1 1 1 1 1 1 1 1 1 1 1 1 1 1 1 1 1 1 1 1 1 1 1 1 1 1 1 1 1 1 1 1 1 1 1 1 
